NAME: tsp20-38
TYPE: TSP
DIMENSION: 20
EDGE_WEIGHT_TYPE: EUC_2D
NODE_COORD_SECTION
0 64 33
1 41 16
2 26 69
3 83 11
4 18 24
5 19 56
6 33 43
7 11 34
8 61 63
9 13 24
10 15 55
11 25 88
12 68 56
13 67 8
14 17 43
15 6 72
16 47 91
17 5 51
18 68 10
19 44 76
EOF